3
46
26
42
14
43
15
37
17
22
32
30
32
39
39
8
26
24
1
23
13
35
30
11
46
20
31
48
34
25
8
22
43
51
1
17
16
14
7
43
20
1
50
26
16
39
39
43
6
28
49
42
34
44
36
20
30
18
46
26
13
23
29
47
48
15
14
16
27
22
41
24
15
35
35
15
19
28
17
25
14
38
15
39
35
27
6
36
51
16
22
45
29
14
39
16
2
8
47
19
